
Presolve eliminates 13776 constraints and 12784 variables.
Adjusted problem:
34016 variables:
	33416 binary variables
	600 linear variables
34317 constraints, all linear; 279064 nonzeros
	1277 equality constraints
	33040 inequality constraints
1 linear objective; 32816 nonzeros.

Gurobi 9.1.2: mipgap 0.01
outlev 1
timelim 3600
Gurobi Optimizer version 9.1.2 build v9.1.2rc0 (linux64)
Thread count: 4 physical cores, 4 logical processors, using up to 4 threads
Optimize a model with 34317 rows, 34016 columns and 279064 nonzeros
Model fingerprint: 0xcac49dce
Variable types: 600 continuous, 33416 integer (33416 binary)
Coefficient statistics:
  Matrix range     [7e-02, 2e+02]
  Objective range  [4e+01, 7e+03]
  Bounds range     [1e+00, 2e+02]
  RHS range        [1e+00, 2e+02]
Presolve removed 1200 rows and 0 columns
Presolve time: 1.59s
Presolved: 33117 rows, 34016 columns, 182704 nonzeros
Variable types: 600 continuous, 33416 integer (33416 binary)

Deterministic concurrent LP optimizer: primal and dual simplex
Showing first log only...


Root simplex log...

Iteration    Objective       Primal Inf.    Dual Inf.      Time
    9784    3.8445900e+03   0.000000e+00   2.411815e+05      5s
Concurrent spin time: 0.00s

Solved with dual simplex

Root relaxation: objective 3.542000e+03, 9326 iterations, 4.42 seconds

    Nodes    |    Current Node    |     Objective Bounds      |     Work
 Expl Unexpl |  Obj  Depth IntInf | Incumbent    BestBd   Gap | It/Node Time

     0     0 3542.00000    0  275          - 3542.00000      -     -    8s
     0     0 3542.00000    0  299          - 3542.00000      -     -   11s
     0     0 3542.13333    0  290          - 3542.13333      -     -   12s
     0     0 3543.00000    0  315          - 3543.00000      -     -   13s
     0     0 3543.00000    0  303          - 3543.00000      -     -   13s
     0     0 3543.00000    0  267          - 3543.00000      -     -   16s
     0     0 3543.00000    0  281          - 3543.00000      -     -   17s
     0     0 3543.00000    0  302          - 3543.00000      -     -   19s
     0     0 3543.00000    0  307          - 3543.00000      -     -   20s
     0     0 3543.00000    0  255          - 3543.00000      -     -   25s
H    0     0                    3890.0000000 3543.00000  8.92%     -   35s
     0     0 3543.00000    0  294 3890.00000 3543.00000  8.92%     -   36s
     0     0 3543.00000    0  230 3890.00000 3543.00000  8.92%     -   40s
H    0     0                    3886.0000000 3543.00000  8.83%     -   42s
     0     0 3543.00000    0  264 3886.00000 3543.00000  8.83%     -   43s
     0     0 3543.91667    0  256 3886.00000 3543.91667  8.80%     -   47s
H    0     0                    3878.0000000 3543.91667  8.61%     -   62s
     0     0 3546.00000    0  304 3878.00000 3546.00000  8.56%     -   63s
     0     0 3546.00000    0  271 3878.00000 3546.00000  8.56%     -   63s
     0     0 3549.31667    0  324 3878.00000 3549.31667  8.48%     -   66s
H    0     0                    3860.0000000 3549.31667  8.05%     -   67s
     0     0 3550.50000    0  342 3860.00000 3550.50000  8.02%     -   68s
     0     0 3550.50000    0  310 3860.00000 3550.50000  8.02%     -   69s
     0     0 3558.50000    0  374 3860.00000 3558.50000  7.81%     -   73s
     0     0 3559.25000    0  320 3860.00000 3559.25000  7.79%     -   74s
     0     0 3559.25000    0  325 3860.00000 3559.25000  7.79%     -   74s
     0     0 3562.00000    0  360 3860.00000 3562.00000  7.72%     -   77s
     0     0 3563.00000    0  369 3860.00000 3563.00000  7.69%     -  116s
     0     0 3563.00000    0  341 3860.00000 3563.00000  7.69%     -  118s
     0     0 3564.33333    0  385 3860.00000 3564.33333  7.66%     -  122s
     0     0 3564.33333    0  311 3860.00000 3564.33333  7.66%     -  123s
     0     0 3565.33333    0  338 3860.00000 3565.33333  7.63%     -  126s
     0     0 3565.33333    0  298 3860.00000 3565.33333  7.63%     -  127s
     0     0 3565.93889    0  389 3860.00000 3565.93889  7.62%     -  130s
     0     0 3567.00000    0  303 3860.00000 3567.00000  7.59%     -  133s
     0     0 3567.00000    0  319 3860.00000 3567.00000  7.59%     -  133s
     0     0 3568.00000    0  326 3860.00000 3568.00000  7.56%     -  136s
     0     0 3568.00000    0  294 3860.00000 3568.00000  7.56%     -  137s
     0     0 3568.00000    0  322 3860.00000 3568.00000  7.56%     -  140s
     0     0 3568.00000    0  240 3860.00000 3568.00000  7.56%     -  175s
     0     0 3568.00000    0  274 3860.00000 3568.00000  7.56%     -  203s
     0     0 3568.00000    0  287 3860.00000 3568.00000  7.56%     -  208s
     0     0 3568.00000    0  293 3860.00000 3568.00000  7.56%     -  211s
     0     0 3568.00000    0  304 3860.00000 3568.00000  7.56%     -  213s
H    0     0                    3840.0000000 3568.00000  7.08%     -  222s
H    0     0                    3831.0000000 3568.00000  6.87%     -  225s
     0     0 3568.00000    0  384 3831.00000 3568.00000  6.87%     -  225s
     0     0 3568.00000    0  347 3831.00000 3568.00000  6.87%     -  226s
     0     0 3568.00000    0  371 3831.00000 3568.00000  6.87%     -  229s
     0     0 3568.00000    0  300 3831.00000 3568.00000  6.87%     -  242s
     0     0 3568.00000    0  326 3831.00000 3568.00000  6.87%     -  243s
     0     0 3568.00000    0  350 3831.00000 3568.00000  6.87%     -  244s
     0     0 3568.00000    0  303 3831.00000 3568.00000  6.87%     -  244s
     0     0 3568.00000    0  374 3831.00000 3568.00000  6.87%     -  247s
     0     0 3568.00000    0  306 3831.00000 3568.00000  6.87%     -  248s
     0     0 3568.00000    0  318 3831.00000 3568.00000  6.87%     -  251s
     0     0 3568.00000    0  319 3831.00000 3568.00000  6.87%     -  252s
     0     0 3568.06250    0  256 3831.00000 3568.06250  6.86%     -  259s
     0     0 3568.25000    0  286 3831.00000 3568.25000  6.86%     -  262s
     0     0 3568.25000    0  320 3831.00000 3568.25000  6.86%     -  263s
     0     0 3568.50000    0  292 3831.00000 3568.50000  6.85%     -  264s
     0     0 3568.50000    0  272 3831.00000 3568.50000  6.85%     -  266s
     0     0 3568.50000    0  345 3831.00000 3568.50000  6.85%     -  268s
     0     0 3568.50000    0  348 3831.00000 3568.50000  6.85%     -  269s
     0     0 3568.56834    0  275 3831.00000 3568.56834  6.85%     -  276s
     0     0 3568.56834    0  275 3831.00000 3568.56834  6.85%     -  298s
     0     2 3568.56834    0  246 3831.00000 3568.56834  6.85%     -  320s
     1     4 3569.79722    1  300 3831.00000 3568.62169  6.85%   769  331s
     3     8 3571.04722    2  321 3831.00000 3568.68532  6.85%   308  352s
     7    12 3571.14167    3  347 3831.00000 3568.96921  6.84%   288  385s
    11    16 3571.14167    4  306 3831.00000 3568.96921  6.84%   274  390s
    15    20 3571.80833    5  362 3831.00000 3568.96921  6.84%   257  399s
    19    24 3571.14167    5  341 3831.00000 3568.96921  6.84%   223  407s
    23    30 3571.14167    6  334 3831.00000 3568.96921  6.84%   218  423s
H   29    33                    3829.0000000 3568.96921  6.79%   220  467s
H   30    33                    3826.0000000 3568.96921  6.72%   217  467s
H   31    33                    3811.0000000 3568.96921  6.35%   212  467s
    33    40 3571.75699    8  367 3811.00000 3568.96921  6.35%   239  473s
    40    50 3571.75699    9  314 3811.00000 3568.96921  6.35%   210  479s
    50    57 3574.75699   11  292 3811.00000 3568.96921  6.35%   186  484s
    57    68 3571.75699   13  281 3811.00000 3568.96921  6.35%   178  523s
    68    79 3572.33639   15  257 3811.00000 3568.96921  6.35%   163  530s
    79    91 3572.61648   18  264 3811.00000 3568.96921  6.35%   155  537s
    91   108 3573.43401   22  267 3811.00000 3568.96921  6.35%   144  543s
   108   126 3574.18179   27  280 3811.00000 3568.96921  6.35%   128  548s
   126   139 3574.68972   33  276 3811.00000 3568.96921  6.35%   119  554s
   139   157 3591.06494   35  255 3811.00000 3568.96921  6.35%   119  560s
   157   175 3592.27632   39  266 3811.00000 3568.96921  6.35%   116  565s
   176   196 3593.20455   43  284 3811.00000 3568.96921  6.35%   111  571s
   198   214 3594.53704   47  270 3811.00000 3568.96921  6.35%   107  594s
   216   243 3596.21912   51  268 3811.00000 3568.96921  6.35%   104  601s
   245   267 3597.81667   57  263 3811.00000 3568.96921  6.35%  98.3  607s
   271   300 3598.42561   64  258 3811.00000 3568.96921  6.35%  94.5  613s
   304   304 3598.99815   78  241 3811.00000 3568.96921  6.35%  90.6  639s
H  305   304                    3801.0000000 3568.96921  6.10%  90.3  639s
   308   350 3599.05833   79  287 3801.00000 3568.96921  6.10%  90.2  646s
   355   379 3600.05952   86  228 3801.00000 3568.96921  6.10%  85.2  653s
   384   412 3601.85852   95  259 3801.00000 3568.96921  6.10%  84.2  660s
   417   448 3604.14444  105  265 3801.00000 3568.96921  6.10%  82.2  667s
   457   477 3605.52986  121  274 3801.00000 3568.96921  6.10%  78.6  674s
   497   504 3608.10035  133  264 3801.00000 3568.96921  6.10%  75.9  681s
   535   540 3571.71374    6  315 3801.00000 3568.96921  6.10%  77.0  689s
   572   584 3573.89461   11  335 3801.00000 3568.96921  6.10%  76.9  696s
   616   619 3574.71162   13  339 3801.00000 3568.96921  6.10%  76.3  703s
   666   657 3574.71389   16  245 3801.00000 3568.96921  6.10%  74.3  711s
   724   721 3574.71389   22  224 3801.00000 3568.96921  6.10%  73.1  720s
   788   781 3575.01389   27  259 3801.00000 3568.96921  6.10%  71.3  729s
   848   849 3576.32370   32  252 3801.00000 3568.96921  6.10%  71.7  738s
   916   929 3582.95670   40  307 3801.00000 3568.96921  6.10%  70.3  748s
   996   956 3580.64112   58  328 3801.00000 3568.96921  6.10%  68.2  761s
  1023  1035 3583.25993   63  297 3801.00000 3568.96921  6.10%  68.0  771s
  1107  1116 3584.54464   71  239 3801.00000 3568.96921  6.10%  66.9  781s
  1193  1187 3589.13792   77  274 3801.00000 3568.96921  6.10%  65.7  793s
  1287  1238 3592.69568   78  274 3801.00000 3568.96921  6.10%  65.3  803s
  1339  1289 3594.45609   84  276 3801.00000 3568.96921  6.10%  66.9  854s
  1392  1353 3607.02555   88  240 3801.00000 3568.96921  6.10%  66.8  866s
  1462  1420 3621.53088   96  277 3801.00000 3568.96921  6.10%  67.7  878s
  1530  1500 3635.13478  109  277 3801.00000 3568.96921  6.10%  68.3  891s
  1615  1594 3659.07849  125  255 3801.00000 3568.96921  6.10%  68.9  905s
  1722  1681 3579.25000   18  382 3801.00000 3568.96921  6.10%  68.4  918s
  1811  1682 3611.38703   83  240 3801.00000 3568.96921  6.10%  69.6  957s
  1813  1683 3571.30175   11  294 3801.00000 3568.96921  6.10%  69.5  971s
  1814  1684 3686.83961  506  286 3801.00000 3568.96921  6.10%  69.4  975s
  1816  1685 3687.70782  470  307 3801.00000 3568.96921  6.10%  69.4  980s
  1817  1686 3662.99306  169  383 3801.00000 3568.96921  6.10%  69.3  985s
  1819  1687 3588.59006   30  369 3801.00000 3568.96921  6.10%  69.3  994s
  1820  1688 3592.78094   73  250 3801.00000 3568.96921  6.10%  69.2 1032s
H 1820  1603                    3782.0000000 3568.96921  5.63%  69.2 1039s
  1822  1604 3595.09178   81  338 3782.00000 3568.96921  5.63%  69.1 1043s
  1824  1606 3692.75832  248  277 3782.00000 3568.96921  5.63%  69.1 1045s
  1828  1608 3577.62134   20  336 3782.00000 3569.12992  5.63%  68.9 1050s
  1829  1609 3571.30175    9  392 3782.00000 3569.69262  5.61%  68.9 1061s
  1832  1611 3591.52216   68  419 3782.00000 3570.42712  5.59%  68.8 1069s
  1833  1612 3580.86400   51  439 3782.00000 3571.06616  5.58%  68.7 1072s
  1835  1613 3596.80290   52  423 3782.00000 3571.25405  5.57%  68.7 1075s
  1836  1614 3657.45289  235  422 3782.00000 3571.25405  5.57%  68.6 1081s
  1837  1614 3686.73731  497  484 3782.00000 3571.29331  5.57%  68.6 1085s
  1840  1616 3688.05774  201  502 3782.00000 3571.39586  5.57%  68.5 1094s
  1841  1617 3577.08920   14  447 3782.00000 3571.39656  5.57%  68.4 1096s
  1843  1618 3683.56473  384  513 3782.00000 3571.45619  5.57%  68.4 1101s
  1846  1620 3577.22390   44  525 3782.00000 3571.50474  5.57%  68.2 1110s
  1848  1622 3643.59705  164  602 3782.00000 3571.58933  5.56%  68.2 1115s
  1850  1623 3599.34163   77  553 3782.00000 3571.72338  5.56%  68.1 1122s
  1852  1624 3689.60301  372  506 3782.00000 3571.74624  5.56%  68.0 1127s
  1854  1626 3609.13540   89  471 3782.00000 3571.76788  5.56%  68.0 1131s
  1855  1626 3618.44222  103  525 3782.00000 3571.76788  5.56%  67.9 1137s
  1856  1627 3583.53385   64  545 3782.00000 3571.82058  5.56%  67.9 1141s
  1858  1628 3630.50519   75  573 3782.00000 3571.86870  5.56%  67.8 1147s
  1859  1629 3571.86870    9  596 3782.00000 3571.86870  5.56%  67.8 1153s
  1860  1630 3622.03590   91  665 3782.00000 3571.89400  5.56%  67.7 1170s
  1862  1631 3590.08195   86  633 3782.00000 3571.90293  5.56%  67.7 1185s
  1864  1632 3603.12824  100  715 3782.00000 3571.90293  5.56%  67.6 1196s
  1866  1634 3606.22336   74  653 3782.00000 3571.91773  5.55%  67.5 1202s
  1868  1635 3686.73427  197  717 3782.00000 3571.92927  5.55%  67.4 1215s
  1869  1636 3686.70224  416  374 3782.00000 3571.92927  5.55%  67.4 1233s
  1870  1636 3687.20394  523  586 3782.00000 3571.92927  5.55%  67.4 1242s
  1871  1637 3609.37407   83  646 3782.00000 3571.92927  5.55%  67.3 1247s
H 1871  1554                    3777.0000000 3571.92927  5.43%  67.3 1251s
  1872  1555 3590.74904   34  644 3777.00000 3571.92927  5.43%  67.3 1258s
  1873  1555 3583.53791   63  346 3777.00000 3571.92927  5.43%  67.3 1281s
  1874  1556 3572.88281    8  525 3777.00000 3571.92927  5.43%  67.2 1291s
  1875  1557 3603.10695   75  378 3777.00000 3571.92927  5.43%  67.2 1314s
  1876  1557 3607.63750   59  645 3777.00000 3571.92927  5.43%  67.2 1332s
  1877  1558 3596.07593   57  349 3777.00000 3572.00971  5.43%  67.1 1352s
  1878  1559 3680.14288  331  540 3777.00000 3572.00971  5.43%  67.1 1363s
  1879  1559 3643.73788  134  706 3777.00000 3572.00971  5.43%  67.0 1372s
  1880  1560 3621.89074   87  685 3777.00000 3572.03218  5.43%  67.0 1379s
  1881  1561 3603.63943   79  679 3777.00000 3572.05805  5.43%  67.0 1383s
  1882  1561 3607.14532   93  562 3777.00000 3572.07111  5.43%  66.9 1391s
  1883  1562 3635.51029  128  603 3777.00000 3572.07111  5.43%  66.9 1397s
  1884  1563 3663.71651  187  364 3777.00000 3572.07111  5.43%  66.9 1418s
  1885  1563 3641.42023  152  629 3777.00000 3572.07111  5.43%  66.8 1432s
  1886  1564 3572.07111   10  628 3777.00000 3572.07111  5.43%  66.8 1453s
  1887  1565 3589.22083   35  710 3777.00000 3572.07111  5.43%  66.8 1469s
H 1887  1486                    3774.0000000 3572.07111  5.35%  66.8 1483s
  1889  1487 3684.64784  346  670 3774.00000 3572.07111  5.35%  66.7 1491s
  1890  1488 3574.75699   12  369 3774.00000 3572.07111  5.35%  66.7 1501s
  1893  1491 3726.33642  275  240 3774.00000 3572.07111  5.35%   105 1505s
  1895  1492 3687.36369  187  294 3774.00000 3572.07111  5.35%   105 1512s
  1896  1493 3591.04783   72  272 3774.00000 3572.07111  5.35%   105 1515s
  1899  1495 3586.66923   29  365 3774.00000 3572.07111  5.35%   105 1520s
  1903  1498 3591.65421  101  383 3774.00000 3572.07111  5.35%   105 1526s
H 1905  1423                    3769.0000000 3572.07111  5.22%   104 1529s
  1906  1424 3578.41667   42  420 3769.00000 3572.07111  5.22%   104 1530s
H 1908  1354                    3767.0000000 3572.07111  5.17%   104 1532s
  1911  1356 3611.38703   83  385 3767.00000 3572.07111  5.17%   104 1536s
  1912  1357 3604.96667   53  305 3767.00000 3572.07111  5.17%   104 1554s
  1913  1357 3572.08246   11  525 3767.00000 3572.08246  5.17%   104 1557s
  1914  1358 3686.83961  506  549 3767.00000 3572.08246  5.17%   104 1560s
  1915  1359 3678.74748  292  567 3767.00000 3572.08246  5.17%   104 1567s
  1917  1360 3662.99306  169  511 3767.00000 3572.09362  5.17%   104 1571s
  1920  1362 3592.78094   73  501 3767.00000 3572.09600  5.17%   104 1577s
  1921  1363 3654.61392  194  712 3767.00000 3572.09662  5.17%   104 1581s
  1922  1363 3595.09178   81  630 3767.00000 3572.09908  5.17%   104 1585s
  1924  1365 3692.75832  248  692 3767.00000 3572.10809  5.17%   103 1594s
  1925  1365 3578.59496   53  744 3767.00000 3572.10809  5.17%   103 1597s
  1926  1366 3582.77562   36  811 3767.00000 3572.10929  5.17%   103 1600s
  1927  1367 3614.27548   90  834 3767.00000 3572.10929  5.17%   103 1607s
  1928  1367 3577.62134   20  769 3767.00000 3572.10929  5.17%   103 1612s
  1929  1368 3572.12332    9  760 3767.00000 3572.12332  5.17%   103 1615s
  1931  1369 3604.95330   85  686 3767.00000 3572.12750  5.17%   103 1626s
  1932  1370 3591.52216   68  785 3767.00000 3572.13265  5.17%   103 1633s
  1933  1371 3580.86400   51  718 3767.00000 3572.13265  5.17%   103 1636s
  1935  1372 3596.80290   52  809 3767.00000 3572.13386  5.17%   103 1646s
  1936  1373 3657.45289  235  926 3767.00000 3572.15564  5.17%   103 1650s
  1938  1374 3573.05833    8  734 3767.00000 3572.15652  5.17%   103 1661s
  1939  1375 3576.05757   24  726 3767.00000 3572.15790  5.17%   103 1670s
  1940  1375 3688.05774  201  940 3767.00000 3572.15790  5.17%   103 1677s
  1942  1377 3576.01389   33  920 3767.00000 3572.15790  5.17%   102 1683s
  1943  1377 3683.56473  384  421 3767.00000 3572.15790  5.17%   102 1699s
  1944  1378 3677.60766  265  611 3767.00000 3572.15790  5.17%   102 1704s
  1945  1379 3607.04222   82  364 3767.00000 3572.15790  5.17%   102 1716s
  1946  1379 3577.22390   44  691 3767.00000 3572.15790  5.17%   102 1721s
  1947  1380 3583.00000   29  380 3767.00000 3572.15790  5.17%   102 1733s
  1948  1381 3643.59705  164  682 3767.00000 3572.15790  5.17%   102 1743s
H 1948  1311                    3766.0000000 3572.15790  5.15%   102 1751s
  1949  1311 3616.29707  115  429 3766.00000 3572.15790  5.15%   102 1755s
H 1950  1245                    3761.0000000 3572.17333  5.02%   102 1786s
  1952  1246 3689.60301  372  663 3761.00000 3572.17333  5.02%   102 1801s
  1953  1247 3687.70782  470  712 3761.00000 3572.17333  5.02%   102 1810s
  1954  1248 3609.13540   89  818 3761.00000 3572.17766  5.02%   102 1816s
  1955  1248 3618.44222  103  780 3761.00000 3572.17766  5.02%   102 1824s
  1956  1249 3583.53385   64  332 3761.00000 3572.17766  5.02%   102 1837s
  1957  1250 3687.44669  509  641 3761.00000 3572.17766  5.02%   102 1844s
  1958  1250 3630.50519   75  765 3761.00000 3572.17766  5.02%   102 1855s
  1959  1251 3572.17766    9  705 3761.00000 3572.17766  5.02%   102 1862s
  1960  1252 3622.03590   91  325 3761.00000 3572.17766  5.02%   102 1930s
  1961  1252 3692.79517  542  298 3761.00000 3572.17766  5.02%   101 1946s
  1962  1253 3590.08195   86  298 3761.00000 3572.17766  5.02%   101 2031s
  1963  1257 3572.56003   21  400 3761.00000 3572.27778  5.02%   142 2326s
  1965  1260 3573.04587   22  511 3761.00000 3572.41531  5.01%   142 2523s
  1969  1263 3574.65688   23  506 3761.00000 3572.48979  5.01%   144 2608s
  1973  1265 3573.05161   23  638 3761.00000 3572.48979  5.01%   146 2644s
  1977  1268 3573.53124   24  475 3761.00000 3572.49651  5.01%   147 2669s
  1981  1271 3573.76945   24  483 3761.00000 3572.49651  5.01%   149 2684s
  1985  1276 3574.24277   25  403 3761.00000 3573.14145  4.99%   150 2705s
  1992  1278 3574.47252   26  469 3761.00000 3573.14705  4.99%   151 2734s
  1996  1285 3574.51904   26  435 3761.00000 3573.18351  4.99%   151 2748s
  2004  1290 3575.58532   27  378 3761.00000 3573.35737  4.99%   152 2760s
  2012  1295 3575.10583   28  451 3761.00000 3573.35737  4.99%   153 2770s
  2020  1301 3575.14489   29  452 3761.00000 3573.35737  4.99%   154 2810s
H 2021  1236                    3758.0000000 3573.35737  4.91%   154 2811s
  2028  1239 3575.60039   30  371 3758.00000 3573.35737  4.91%   155 2846s
  2033  1253 3575.43357   30  420 3758.00000 3573.35737  4.91%   155 2855s
  2049  1263 3575.76469   32  390 3758.00000 3573.35737  4.91%   156 2866s
H 2064  1202                    3756.0000000 3573.35737  4.86%   156 2936s
H 2065  1144                    3750.0000000 3573.35737  4.71%   156 2936s
  2068  1164 3576.89035   35  371 3750.00000 3573.35737  4.71%   157 2949s
  2089  1170 3577.24006   38  330 3750.00000 3573.35737  4.71%   157 2961s
  2102  1181 3577.37811   39  313 3750.00000 3573.35737  4.71%   158 2973s
  2118  1192 3580.49232   41  344 3750.00000 3573.35737  4.71%   159 2987s
  2134  1206 3578.28026   44  348 3750.00000 3573.35737  4.71%   160 3000s
  2153  1203 3578.36138   46  334 3750.00000 3573.35737  4.71%   161 3090s
  2157  1223 3578.39027   47  333 3750.00000 3573.35737  4.71%   161 3106s
  2178  1243 3578.94473   50  322 3750.00000 3573.35737  4.71%   162 3118s
  2205  1259 3593.14523   55  319 3750.00000 3573.35737  4.71%   162 3131s
  2230  1284 3582.08698   59  350 3750.00000 3573.35737  4.71%   163 3145s
H 2263  1222                    3745.0000000 3573.35737  4.58%   163 3176s
H 2264  1169                    3742.0000000 3573.35737  4.51%   163 3176s
  2267  1199 3593.74022   62  320 3742.00000 3573.35737  4.51%   163 3192s
  2298  1229 3583.52704   65  280 3742.00000 3573.35737  4.51%   163 3208s
  2338  1252 3596.89941   68  313 3742.00000 3573.35737  4.51%   164 3225s
  2380  1275 3585.96190   73  300 3742.00000 3573.35737  4.51%   164 3241s
  2417  1303 3586.17845   77  307 3742.00000 3573.35737  4.51%   164 3259s
  2458  1321 3587.36577   81  273 3742.00000 3573.35737  4.51%   164 3276s
  2491  1361 3587.54502   84  239 3742.00000 3573.35737  4.51%   164 3294s
  2544  1389 3588.43951   91  279 3742.00000 3573.35737  4.51%   163 3313s
  2590  1435 3588.54687   96  281 3742.00000 3573.35737  4.51%   163 3332s
  2651  1475 3588.72002  101  294 3742.00000 3573.35737  4.51%   162 3350s
  2712  1507 3591.45759  107  280 3742.00000 3573.35737  4.51%   161 3369s
  2764  1542 3599.81143  112  274 3742.00000 3573.35737  4.51%   162 3388s
  2816  1580 3589.95919  118  258 3742.00000 3573.35737  4.51%   162 3410s
  2872  1611 3590.07899  124  279 3742.00000 3573.35737  4.51%   162 3433s
  2922  1659 3600.36989  129  250 3742.00000 3573.35737  4.51%   163 3456s
  2987  1705 3592.21843  138  277 3742.00000 3573.35737  4.51%   163 3479s
  3055  1758 3592.29063  145  277 3742.00000 3573.35737  4.51%   163 3502s
  3130  1824 3593.36791  153  253 3742.00000 3573.35737  4.51%   163 3526s
  3221  1879 3595.88034  162  270 3742.00000 3573.35737  4.51%   161 3551s
  3309  1950 3596.85634  170  232 3742.00000 3573.35737  4.51%   161 3578s
  3409  1997 3597.31305  184  199 3742.00000 3573.35737  4.51%   160 3600s

Cutting planes:
  Gomory: 128
  Cover: 1
  Implied bound: 130
  Projected implied bound: 18
  Clique: 4
  MIR: 295
  StrongCG: 2
  Flow cover: 249
  Zero half: 232
  RLT: 34
  Relax-and-lift: 78

Explored 3495 nodes (613887 simplex iterations) in 3600.17 seconds
Thread count was 4 (of 4 available processors)

Solution count 10: 3742 3745 3750 ... 3774

Time limit reached
Best objective 3.742000000000e+03, best bound 3.574000000000e+03, gap 4.4896%
Gurobi 9.1.2: time limit with a feasible solution; objective 3742
613887 simplex iterations
3495 branch-and-cut nodes
No basis.
No dual variables returned.
sum{(i,j) in Arcs, k in K: i != j} c[i,j]*x[i,j,k] + sum{(i,j) in Arcs, 
  k in K} cto[i,j]*x[i,j,k] = 3742

sum{(i,j) in Arcs, k in K: i != j} c[i,j]*x[i,j,k] = 368

sum{(i,j) in Arcs, k in K: i != j} cto[i,j]*x[i,j,k] = 3374

COST = 3742

x  1 28 costo: 5.00, cto: 40.00, dano: 0.230000
x  2  1 costo: 5.00, cto: 40.00, dano: 0.230000
x  6 67 costo: 4.00, cto: 40.00, dano: 0.000000
x 22 73 costo: 3.00, cto: 40.00, dano: 0.000000
x 28 62 costo: 2.00, cto: 39.00, dano: 0.100000
x 62 22 costo: 2.00, cto: 39.00, dano: 0.000000
x 67  0 costo: 2.00, cto: 39.00, dano: 0.080000
x 68  2 costo: 2.00, cto: 39.00, dano: 0.000000
x 73  6 costo: 4.00, cto: 40.00, dano: 0.180000
x  0 68 costo: 2.00, cto: 39.00, dano: 0.000000
x 23 56 costo: 1.00, cto: 42.00, dano: 0.000000
x 24  0 costo: 7.00, cto: 48.00, dano: 0.000000
x 33 23 costo: 4.00, cto: 40.00, dano: 0.000000
x 41 24 costo: 9.00, cto: 42.00, dano: 0.430000
x 42 64 costo: 5.00, cto: 39.00, dano: 0.350000
x 43 41 costo: 1.00, cto: 38.00, dano: 0.070000
x 56 42 costo: 5.00, cto: 40.00, dano: 0.230000
x 64 43 costo: 5.00, cto: 40.00, dano: 0.230000
x 75 33 costo: 4.00, cto: 41.00, dano: 0.000000
x  0 75 costo: 1.00, cto: 38.00, dano: 0.000000
x  3 63 costo: 4.00, cto: 40.00, dano: 0.000000
x  5 47 costo: 3.00, cto: 39.00, dano: 0.120000
x 21 61 costo: 4.00, cto: 40.00, dano: 0.170000
x 47 48 costo: 2.00, cto: 39.00, dano: 0.100000
x 48 21 costo: 6.00, cto: 39.00, dano: 0.490000
x 60 69 costo: 6.00, cto: 40.00, dano: 0.550000
x 61 74 costo: 6.00, cto: 40.00, dano: 0.230000
x 63 60 costo: 13.00, cto: 47.00, dano: 0.000000
x 69  5 costo: 6.00, cto: 44.00, dano: 0.000000
x 74  0 costo: 8.00, cto: 41.00, dano: 0.330000
x  0  3 costo: 4.00, cto: 45.00, dano: 0.000000
x  8 66 costo: 9.00, cto: 43.00, dano: 0.450000
x 16 49 costo: 4.00, cto: 39.00, dano: 0.150000
x 19 54 costo: 4.00, cto: 39.00, dano: 0.310000
x 35 19 costo: 2.00, cto: 43.00, dano: 0.000000
x 38 58 costo: 2.00, cto: 39.00, dano: 0.000000
x 49 35 costo: 12.00, cto: 49.00, dano: 0.000000
x 54  8 costo: 7.00, cto: 40.00, dano: 0.470000
x 58  0 costo: 4.00, cto: 45.00, dano: 0.000000
x 65 38 costo: 2.00, cto: 39.00, dano: 0.080000
x 66 65 costo: 3.00, cto: 39.00, dano: 0.120000
x  0 16 costo: 5.00, cto: 41.00, dano: 0.000000
x  7 46 costo: 2.00, cto: 39.00, dano: 0.000000
x  9 25 costo: 3.00, cto: 40.00, dano: 0.000000
x 18 55 costo: 6.00, cto: 40.00, dano: 0.550000
x 25  7 costo: 11.00, cto: 44.00, dano: 0.000000
x 32 50 costo: 3.00, cto: 39.00, dano: 0.120000
x 44 32 costo: 4.00, cto: 39.00, dano: 0.310000
x 46  0 costo: 3.00, cto: 44.00, dano: 0.000000
x 50 18 costo: 4.00, cto: 39.00, dano: 0.370000
x 55  9 costo: 5.00, cto: 41.00, dano: 0.000000
x  0 44 costo: 8.00, cto: 41.00, dano: 0.330000
x 10 11 costo: 4.00, cto: 40.00, dano: 0.000000
x 11 59 costo: 5.00, cto: 44.00, dano: 0.000000
x 14  0 costo: 12.00, cto: 43.00, dano: 1.060000
x 26 72 costo: 4.00, cto: 40.00, dano: 0.000000
x 31 10 costo: 4.00, cto: 40.00, dano: 0.000000
x 39 31 costo: 4.00, cto: 41.00, dano: 0.000000
x 59 14 costo: 4.00, cto: 40.00, dano: 0.170000
x 72 39 costo: 4.00, cto: 39.00, dano: 0.200000
x  0 26 costo: 1.00, cto: 39.00, dano: 0.000000
x 20 45 costo: 7.00, cto: 42.00, dano: 0.000000
x 27 52 costo: 1.00, cto: 42.00, dano: 0.000000
x 30 27 costo: 5.00, cto: 40.00, dano: 0.230000
x 34 37 costo: 8.00, cto: 42.00, dano: 0.000000
x 36 20 costo: 5.00, cto: 40.00, dano: 0.200000
x 37 70 costo: 3.00, cto: 39.00, dano: 0.150000
x 45  0 costo: 4.00, cto: 40.00, dano: 0.000000
x 52 34 costo: 1.00, cto: 38.00, dano: 0.000000
x 70 71 costo: 2.00, cto: 43.00, dano: 0.000000
x 71 36 costo: 5.00, cto: 39.00, dano: 0.430000
x  0 30 costo: 4.00, cto: 40.00, dano: 0.000000
x  4 15 costo: 7.00, cto: 41.00, dano: 0.330000
x 12 17 costo: 3.00, cto: 39.00, dano: 0.120000
x 13 53 costo: 7.00, cto: 42.00, dano: 0.000000
x 15 29 costo: 4.00, cto: 40.00, dano: 0.170000
x 17 51 costo: 2.00, cto: 39.00, dano: 0.000000
x 29 57 costo: 5.00, cto: 44.00, dano: 0.000000
x 40 12 costo: 1.00, cto: 39.00, dano: 0.000000
x 51  0 costo: 3.00, cto: 40.00, dano: 0.000000
x 53 40 costo: 6.00, cto: 42.00, dano: 0.000000
x 57 13 costo: 2.00, cto: 39.00, dano: 0.000000
x  0  4 costo: 3.00, cto: 39.00, dano: 0.120000
